certificates/rado_a10_c54_N29.cnf
c Rad2 upper bound instance: x1 + 10*x2 - x3 = 54, interval [1,29]
p cnf 29 168
1 6 7 0
-1 -6 -7 0
1 7 17 0
-1 -7 -17 0
1 8 27 0
-1 -8 -27 0
2 6 8 0
-2 -6 -8 0
2 7 18 0
-2 -7 -18 0
2 8 28 0
-2 -8 -28 0
3 6 9 0
-3 -6 -9 0
3 7 19 0
-3 -7 -19 0
3 8 29 0
-3 -8 -29 0
4 6 10 0
-4 -6 -10 0
4 7 20 0
-4 -7 -20 0
1 5 0
-1 -5 0
5 6 11 0
-5 -6 -11 0
5 7 21 0
-5 -7 -21 0
2 5 6 0
-2 -5 -6 0
6 12 0
-6 -12 0
6 7 22 0
-6 -7 -22 0
3 5 7 0
-3 -5 -7 0
6 7 13 0
-6 -7 -13 0
7 23 0
-7 -23 0
4 5 8 0
-4 -5 -8 0
6 8 14 0
-6 -8 -14 0
7 8 24 0
-7 -8 -24 0
5 9 0
-5 -9 0
6 9 15 0
-6 -9 -15 0
7 9 25 0
-7 -9 -25 0
5 6 10 0
-5 -6 -10 0
6 10 16 0
-6 -10 -16 0
7 10 26 0
-7 -10 -26 0
5 7 11 0
-5 -7 -11 0
6 11 17 0
-6 -11 -17 0
7 11 27 0
-7 -11 -27 0
5 8 12 0
-5 -8 -12 0
6 12 18 0
-6 -12 -18 0
7 12 28 0
-7 -12 -28 0
5 9 13 0
-5 -9 -13 0
6 13 19 0
-6 -13 -19 0
7 13 29 0
-7 -13 -29 0
5 10 14 0
-5 -10 -14 0
6 14 20 0
-6 -14 -20 0
1 4 15 0
-1 -4 -15 0
5 11 15 0
-5 -11 -15 0
6 15 21 0
-6 -15 -21 0
2 4 16 0
-2 -4 -16 0
5 12 16 0
-5 -12 -16 0
6 16 22 0
-6 -16 -22 0
3 4 17 0
-3 -4 -17 0
5 13 17 0
-5 -13 -17 0
6 17 23 0
-6 -17 -23 0
4 18 0
-4 -18 0
5 14 18 0
-5 -14 -18 0
6 18 24 0
-6 -18 -24 0
4 5 19 0
-4 -5 -19 0
5 15 19 0
-5 -15 -19 0
6 19 25 0
-6 -19 -25 0
4 6 20 0
-4 -6 -20 0
5 16 20 0
-5 -16 -20 0
6 20 26 0
-6 -20 -26 0
4 7 21 0
-4 -7 -21 0
5 17 21 0
-5 -17 -21 0
6 21 27 0
-6 -21 -27 0
4 8 22 0
-4 -8 -22 0
5 18 22 0
-5 -18 -22 0
6 22 28 0
-6 -22 -28 0
4 9 23 0
-4 -9 -23 0
5 19 23 0
-5 -19 -23 0
6 23 29 0
-6 -23 -29 0
4 10 24 0
-4 -10 -24 0
5 20 24 0
-5 -20 -24 0
1 3 25 0
-1 -3 -25 0
4 11 25 0
-4 -11 -25 0
5 21 25 0
-5 -21 -25 0
2 3 26 0
-2 -3 -26 0
4 12 26 0
-4 -12 -26 0
5 22 26 0
-5 -22 -26 0
3 27 0
-3 -27 0
4 13 27 0
-4 -13 -27 0
5 23 27 0
-5 -23 -27 0
3 4 28 0
-3 -4 -28 0
4 14 28 0
-4 -14 -28 0
5 24 28 0
-5 -24 -28 0
3 5 29 0
-3 -5 -29 0
4 15 29 0
-4 -15 -29 0
5 25 29 0
-5 -25 -29 0
