certificates/rado_a10_c54_N29.drat
-25 3 -29 0
-27 -28 -29 0
-28 -29 0
d -27 -28 -29 0
27 -29 0
-29 0
-27 0
3 0
7 1 0
d 7 17 1 0
-5 0
1 0
9 0
25 0
23 0
0
